N = 7;
H = 5;
T = 2;

avail = array3d(1..N, 1..H, 1..T, [6, 5, 6, 6, 4, 10, 5, 3, 0, 0, 7, 10, 4, 10, 10, 3, 9, 2, 4, 10, 1, 4, 7, 2, 10, 4, 8, 7, 9, 2, 3, 4, 6, 8, 5, 6, 8, 3, 0, 9, 0, 0, 10, 6, 7, 5, 9, 5, 2, 2, 10, 1, 0, 9, 2, 9, 6, 2, 5, 5, 6, 7, 4, 0, 6, 4, 3, 7, 10, 7]);

r = array2d(1..H, 1..T, [0, 1, 2, 1, 2, 1, 2, 2, 2, 0]);
